n = 10; 

m=14; 


41	62	69	24	28	64	70	28	26	62
86	82	84	96	82	92	75	83	85	72
37	24	30	72	58	21	51	60	34	65
15	51	50	60	65	67	27	60	70	26
72	69	24	53	3	68	6	67	55	26
66	63	71	42	30	25	24	62	3	70
65	16	69	30	26	34	34	33	11	59
22	6	63	11	64	57	66	7	60	23
46	70	11	68	4	8	65	54	52	60
48	6	14	27	6	42	44	10	47	41
9	20	14	56	31	31	7	12	14	69
19	54	52	33	42	62	45	25	42	47
2	24	16	34	40	65	60	23	4	36
37	24	30	72	58	21	51	60	34	65
 
 

 
